162 5
10 10 10 10 10 

0 0 0 0 0 0 1 2 
0 0 0 0 0 0 3 3 7 8 
6 0 0 0 1 0 2 11 4 
7 0 0 0 1 0 2 12 5 
7 0 0 0 1 0 2 9 6 
4 0 0 0 1 0 1 10 
8 0 0 0 4 0 1 11 
4 0 0 0 1 0 1 9 
1 0 0 0 6 0 1 13 
7 0 0 0 4 0 1 13 
5 0 0 0 4 0 1 13 
5 0 0 0 2 0 1 13 
0 0 0 0 0 0 1 14 
0 0 0 0 0 0 2 15 17 
8 0 1 0 0 0 2 24 16 
4 0 1 0 0 0 2 22 18 
2 0 2 0 0 0 4 24 22 21 19 
9 0 4 0 0 0 3 23 21 19 
8 0 3 0 0 0 1 20 
8 0 3 0 0 0 1 25 
4 0 2 0 0 0 1 25 
8 0 1 0 0 0 1 25 
6 0 5 0 0 0 1 25 
10 0 3 0 0 0 1 25 
0 0 0 0 0 0 1 26 
0 0 0 0 0 0 5 27 31 32 35 36 
4 0 1 0 0 0 1 28 
10 0 3 0 0 0 1 29 
8 0 1 0 0 0 1 30 
10 0 3 0 0 0 1 33 
3 0 2 0 0 0 1 34 
7 0 3 0 0 0 1 33 
7 0 3 0 0 0 1 37 
6 0 1 0 0 0 1 37 
6 0 3 0 0 0 1 37 
7 0 5 0 0 0 1 37 
0 0 0 0 0 0 5 38 60 82 104 126 
0 0 0 0 0 0 2 39 40 
9 0 0 1 0 1 2 43 42 
9 0 0 2 0 2 2 45 41 
8 0 0 3 0 3 2 51 42 
9 0 0 2 0 6 3 50 48 44 
6 0 0 5 0 3 3 48 46 45 
4 0 0 2 0 1 1 46 
9 0 0 2 0 3 3 52 51 49 
4 0 0 3 0 2 1 47 
10 0 0 4 0 3 2 52 49 
3 0 0 3 0 2 2 52 49 
2 0 0 4 0 2 3 55 54 53 
1 0 0 2 0 3 2 58 53 
1 0 0 2 0 3 1 53 
9 0 0 2 0 1 2 58 57 
10 0 0 2 0 1 1 56 
2 0 0 2 0 4 1 56 
9 0 0 3 0 2 1 56 
6 0 0 3 0 4 1 57 
2 0 0 2 0 1 1 59 
8 0 0 1 0 3 1 59 
0 0 0 0 0 0 1 162 
0 0 0 0 0 0 2 61 80 
3 0 0 1 0 1 1 62 
1 0 0 3 0 1 2 66 63 
4 0 0 2 0 5 1 64 
5 0 0 3 0 3 2 74 65 
10 0 0 2 0 1 4 73 71 69 67 
8 0 0 3 0 1 3 73 71 67 
2 0 0 1 0 2 1 68 
3 0 0 2 0 4 2 78 70 
4 0 0 3 0 2 2 78 70 
8 0 0 3 0 2 3 77 76 72 
1 0 0 3 0 2 1 72 
6 0 0 2 0 5 1 75 
1 0 0 2 0 1 1 75 
4 0 0 6 0 2 1 79 
5 0 0 1 0 2 1 81 
10 0 0 1 0 2 1 81 
6 0 0 2 0 2 1 81 
4 0 0 6 0 6 1 81 
5 0 0 2 0 5 1 81 
5 0 0 2 0 1 1 81 
0 0 0 0 0 0 1 162 
0 0 0 0 0 0 2 83 84 
2 1 0 0 1 0 4 90 89 88 86 
2 2 0 0 5 0 3 92 88 85 
3 1 0 0 3 0 1 87 
9 4 0 0 1 0 4 96 93 92 91 
5 3 0 0 4 0 3 96 93 90 
10 1 0 0 3 0 2 96 91 
7 2 0 0 5 0 2 95 93 
7 4 0 0 1 0 1 91 
1 1 0 0 4 0 2 95 94 
8 1 0 0 2 0 2 95 94 
4 3 0 0 3 0 1 94 
3 3 0 0 1 0 1 97 
4 3 0 0 1 0 1 97 
10 1 0 0 3 0 1 97 
8 3 0 0 1 0 2 100 98 
7 3 0 0 5 0 2 101 99 
9 3 0 0 4 0 1 102 
2 2 0 0 1 0 1 101 
2 2 0 0 1 0 1 103 
5 7 0 0 1 0 1 103 
0 0 0 0 0 0 1 162 
0 0 0 0 0 0 2 105 106 
10 0 0 1 1 0 2 109 108 
4 0 0 2 2 0 2 111 107 
3 0 0 1 2 0 1 109 
2 0 0 2 3 0 3 116 112 111 
5 0 0 6 3 0 2 114 110 
2 0 0 2 1 0 3 118 116 112 
1 0 0 1 5 0 2 118 114 
6 0 0 3 1 0 1 113 
1 0 0 2 2 0 2 117 115 
7 0 0 2 2 0 2 117 115 
7 0 0 3 3 0 4 124 121 120 119 
4 0 0 1 4 0 3 124 120 119 
2 0 0 3 2 0 2 124 122 
5 0 0 4 2 0 1 119 
2 0 0 3 3 0 1 122 
3 0 0 4 1 0 1 122 
9 0 0 2 4 0 1 122 
9 0 0 2 5 0 1 123 
3 0 0 4 3 0 1 125 
5 0 0 2 1 0 1 125 
0 0 0 0 0 0 1 162 
0 0 0 0 0 0 2 127 128 
9 1 0 0 0 0 3 133 130 129 
7 3 0 0 0 0 3 134 133 132 
7 1 0 0 0 0 2 134 131 
5 1 0 0 0 0 2 134 131 
2 3 0 0 0 0 1 132 
6 2 0 0 0 0 2 136 135 
5 3 0 0 0 0 2 136 135 
5 4 0 0 0 0 1 135 
1 3 0 0 0 0 1 137 
9 4 0 0 0 0 1 137 
0 0 0 0 0 0 2 138 150 
0 0 0 0 0 0 2 139 143 
4 0 0 1 0 0 2 141 140 
9 0 0 2 0 0 3 147 145 144 
3 0 0 3 0 0 1 142 
3 0 0 4 0 0 3 148 147 145 
2 0 0 4 0 0 2 147 145 
4 0 0 3 0 0 2 148 146 
7 0 0 3 0 0 1 146 
1 0 0 1 0 0 1 149 
8 0 0 3 0 0 1 149 
5 0 0 1 0 0 1 149 
0 0 0 0 0 0 1 162 
0 0 0 0 0 0 4 151 152 154 156 
2 0 0 0 0 1 2 160 153 
2 0 0 0 0 1 2 160 155 
10 0 0 0 0 2 1 155 
1 0 0 0 0 3 1 155 
7 0 0 0 0 4 2 159 157 
5 0 0 0 0 2 2 159 158 
9 0 0 0 0 4 1 158 
4 0 0 0 0 1 1 161 
1 0 0 0 0 4 1 161 
9 0 0 0 0 3 1 161 
0 0 0 0 0 0 1 162 
0 0 0 0 0 0 0 
